p cnf 1087
-17 -339
-18 -342
-19 -345
-20 -348
-21 -351
-22 -354
-23 -357
-24 -360
-25 -363
-26 -366
-27 -369
-28 -372
-29 -375
-30 -378
-31 -381
-32 -384
-33 385
-34 386
-35 387
-36 388
-37 389
-38 390
-39 391
-40 392
-41 -18
-41 -19
18 19 41
-42 -20
-42 -21
20 21 42
-43 -22
-43 -23
22 23 43
-44 -24
-44 -25
24 25 44
-45 -26
-45 -27
26 27 45
-46 -28
-46 -29
28 29 46
-47 -30
-47 -31
30 31 47
-48 -32
-48 -33
32 33 48
-49 -34
-49 -35
34 35 49
-50 -36
-50 -37
36 37 50
-51 -38
-51 -39
38 39 51
-52 41
-52 42
-41 -42 52
-53 43
-53 44
-43 -44 53
-54 45
-54 46
-45 -46 54
-55 47
-55 48
-47 -48 55
-56 49
-56 50
-49 -50 56
-57 -40
-57 51
40 -51 57
-58 52
-58 53
-52 -53 58
-59 54
-59 55
-54 -55 59
-60 56
-60 57
-56 -57 60
-61 58
-61 59
-58 -59 61
-62 60
-62 61
-60 -61 62
-63 -17
-63 18
17 -18 63
-64 17
-64 -18
-17 18 64
-65 -63
-65 -64
63 64 65
-66 17
-66 18
-17 -18 66
-67 -17
-67 -65
17 65 67
-68 17
-68 65
-17 -65 68
-69 -67
-69 -68
67 68 69
-70 17
-70 -65
-17 65 70
-71 -66
-71 -70
66 70 71
-72 -18
-72 19
18 -19 72
-73 18
-73 -19
-18 19 73
-74 -72
-74 -73
72 73 74
-75 18
-75 19
-18 -19 75
-76 71
-76 -74
-71 74 76
-77 -71
-77 74
71 -74 77
-78 -76
-78 -77
76 77 78
-79 -71
-79 -74
71 74 79
-80 -75
-80 -79
75 79 80
-81 -19
-81 20
19 -20 81
-82 19
-82 -20
-19 20 82
-83 -81
-83 -82
81 82 83
-84 19
-84 20
-19 -20 84
-85 80
-85 -83
-80 83 85
-86 -80
-86 83
80 -83 86
-87 -85
-87 -86
85 86 87
-88 -80
-88 -83
80 83 88
-89 -84
-89 -88
84 88 89
-90 -20
-90 21
20 -21 90
-91 20
-91 -21
-20 21 91
-92 -90
-92 -91
90 91 92
-93 20
-93 21
-20 -21 93
-94 89
-94 -92
-89 92 94
-95 -89
-95 92
89 -92 95
-96 -94
-96 -95
94 95 96
-97 -89
-97 -92
89 92 97
-98 -93
-98 -97
93 97 98
-99 -21
-99 22
21 -22 99
-100 21
-100 -22
-21 22 100
-101 -99
-101 -100
99 100 101
-102 21
-102 22
-21 -22 102
-103 98
-103 -101
-98 101 103
-104 -98
-104 101
98 -101 104
-105 -103
-105 -104
103 104 105
-106 -98
-106 -101
98 101 106
-107 -102
-107 -106
102 106 107
-108 -22
-108 23
22 -23 108
-109 22
-109 -23
-22 23 109
-110 -108
-110 -109
108 109 110
-111 22
-111 23
-22 -23 111
-112 107
-112 -110
-107 110 112
-113 -107
-113 110
107 -110 113
-114 -112
-114 -113
112 113 114
-115 -107
-115 -110
107 110 115
-116 -111
-116 -115
111 115 116
-117 -23
-117 24
23 -24 117
-118 23
-118 -24
-23 24 118
-119 -117
-119 -118
117 118 119
-120 23
-120 24
-23 -24 120
-121 116
-121 -119
-116 119 121
-122 -116
-122 119
116 -119 122
-123 -121
-123 -122
121 122 123
-124 -116
-124 -119
116 119 124
-125 -120
-125 -124
120 124 125
-126 -24
-126 25
24 -25 126
-127 24
-127 -25
-24 25 127
-128 -126
-128 -127
126 127 128
-129 24
-129 25
-24 -25 129
-130 125
-130 -128
-125 128 130
-131 -125
-131 128
125 -128 131
-132 -130
-132 -131
130 131 132
-133 -125
-133 -128
125 128 133
-134 -129
-134 -133
129 133 134
-135 -25
-135 26
25 -26 135
-136 25
-136 -26
-25 26 136
-137 -135
-137 -136
135 136 137
-138 25
-138 26
-25 -26 138
-139 134
-139 -137
-134 137 139
-140 -134
-140 137
134 -137 140
-141 -139
-141 -140
139 140 141
-142 -134
-142 -137
134 137 142
-143 -138
-143 -142
138 142 143
-144 -26
-144 27
26 -27 144
-145 26
-145 -27
-26 27 145
-146 -144
-146 -145
144 145 146
-147 26
-147 27
-26 -27 147
-148 143
-148 -146
-143 146 148
-149 -143
-149 146
143 -146 149
-150 -148
-150 -149
148 149 150
-151 -143
-151 -146
143 146 151
-152 -147
-152 -151
147 151 152
-153 -27
-153 28
27 -28 153
-154 27
-154 -28
-27 28 154
-155 -153
-155 -154
153 154 155
-156 27
-156 28
-27 -28 156
-157 152
-157 -155
-152 155 157
-158 -152
-158 155
152 -155 158
-159 -157
-159 -158
157 158 159
-160 -152
-160 -155
152 155 160
-161 -156
-161 -160
156 160 161
-162 -28
-162 29
28 -29 162
-163 28
-163 -29
-28 29 163
-164 -162
-164 -163
162 163 164
-165 28
-165 29
-28 -29 165
-166 161
-166 -164
-161 164 166
-167 -161
-167 164
161 -164 167
-168 -166
-168 -167
166 167 168
-169 -161
-169 -164
161 164 169
-170 -165
-170 -169
165 169 170
-171 -29
-171 30
29 -30 171
-172 29
-172 -30
-29 30 172
-173 -171
-173 -172
171 172 173
-174 29
-174 30
-29 -30 174
-175 170
-175 -173
-170 173 175
-176 -170
-176 173
170 -173 176
-177 -175
-177 -176
175 176 177
-178 -170
-178 -173
170 173 178
-179 -174
-179 -178
174 178 179
-180 -30
-180 31
30 -31 180
-181 30
-181 -31
-30 31 181
-182 -180
-182 -181
180 181 182
-183 30
-183 31
-30 -31 183
-184 179
-184 -182
-179 182 184
-185 -179
-185 182
179 -182 185
-186 -184
-186 -185
184 185 186
-187 -179
-187 -182
179 182 187
-188 -183
-188 -187
183 187 188
-189 -31
-189 32
31 -32 189
-190 31
-190 -32
-31 32 190
-191 -189
-191 -190
189 190 191
-192 31
-192 32
-31 -32 192
-193 188
-193 -191
-188 191 193
-194 -188
-194 191
188 -191 194
-195 -193
-195 -194
193 194 195
-196 -188
-196 -191
188 191 196
-197 -192
-197 -196
192 196 197
-198 -32
-198 33
32 -33 198
-199 32
-199 -33
-32 33 199
-200 -198
-200 -199
198 199 200
-201 32
-201 33
-32 -33 201
-202 197
-202 -200
-197 200 202
-203 -197
-203 200
197 -200 203
-204 -202
-204 -203
202 203 204
-205 -197
-205 -200
197 200 205
-206 -201
-206 -205
201 205 206
-207 -33
-207 34
33 -34 207
-208 33
-208 -34
-33 34 208
-209 -207
-209 -208
207 208 209
-210 33
-210 34
-33 -34 210
-211 206
-211 -209
-206 209 211
-212 -206
-212 209
206 -209 212
-213 -211
-213 -212
211 212 213
-214 -206
-214 -209
206 209 214
-215 -210
-215 -214
210 214 215
-216 -34
-216 35
34 -35 216
-217 34
-217 -35
-34 35 217
-218 -216
-218 -217
216 217 218
-219 34
-219 35
-34 -35 219
-220 215
-220 -218
-215 218 220
-221 -215
-221 218
215 -218 221
-222 -220
-222 -221
220 221 222
-223 -215
-223 -218
215 218 223
-224 -219
-224 -223
219 223 224
-225 -35
-225 36
35 -36 225
-226 35
-226 -36
-35 36 226
-227 -225
-227 -226
225 226 227
-228 35
-228 36
-35 -36 228
-229 224
-229 -227
-224 227 229
-230 -224
-230 227
224 -227 230
-231 -229
-231 -230
229 230 231
-232 -224
-232 -227
224 227 232
-233 -228
-233 -232
228 232 233
-234 -36
-234 37
36 -37 234
-235 36
-235 -37
-36 37 235
-236 -234
-236 -235
234 235 236
-237 36
-237 37
-36 -37 237
-238 233
-238 -236
-233 236 238
-239 -233
-239 236
233 -236 239
-240 -238
-240 -239
238 239 240
-241 -233
-241 -236
233 236 241
-242 -237
-242 -241
237 241 242
-243 -37
-243 38
37 -38 243
-244 37
-244 -38
-37 38 244
-245 -243
-245 -244
243 244 245
-246 37
-246 38
-37 -38 246
-247 242
-247 -245
-242 245 247
-248 -242
-248 245
242 -245 248
-249 -247
-249 -248
247 248 249
-250 -242
-250 -245
242 245 250
-251 -246
-251 -250
246 250 251
-252 -38
-252 39
38 -39 252
-253 38
-253 -39
-38 39 253
-254 -252
-254 -253
252 253 254
-255 38
-255 39
-38 -39 255
-256 251
-256 -254
-251 254 256
-257 -251
-257 254
251 -254 257
-258 -256
-258 -257
256 257 258
-259 -251
-259 -254
251 254 259
-260 -255
-260 -259
255 259 260
-261 -39
-261 40
39 -40 261
-262 39
-262 -40
-39 40 262
-263 -261
-263 -262
261 262 263
-264 39
-264 40
-39 -40 264
-265 260
-265 -263
-260 263 265
-266 -260
-266 263
260 -263 266
-267 -265
-267 -266
265 266 267
-268 -260
-268 -263
260 263 268
-269 -264
-269 -268
264 268 269
-270 17
-270 -69
-17 69 270
-271 -17
-271 19
17 -19 271
-272 -270
-272 -271
270 271 272
-273 17
-273 -78
-17 78 273
-274 -17
-274 20
17 -20 274
-275 -273
-275 -274
273 274 275
-276 17
-276 -87
-17 87 276
-277 -17
-277 21
17 -21 277
-278 -276
-278 -277
276 277 278
-279 17
-279 -96
-17 96 279
-280 -17
-280 22
17 -22 280
-281 -279
-281 -280
279 280 281
-282 17
-282 -105
-17 105 282
-283 -17
-283 23
17 -23 283
-284 -282
-284 -283
282 283 284
-285 17
-285 -114
-17 114 285
-286 -17
-286 24
17 -24 286
-287 -285
-287 -286
285 286 287
-288 17
-288 -123
-17 123 288
-289 -17
-289 25
17 -25 289
-290 -288
-290 -289
288 289 290
-291 17
-291 -132
-17 132 291
-292 -17
-292 26
17 -26 292
-293 -291
-293 -292
291 292 293
-294 17
-294 -141
-17 141 294
-295 -17
-295 27
17 -27 295
-296 -294
-296 -295
294 295 296
-297 17
-297 -150
-17 150 297
-298 -17
-298 28
17 -28 298
-299 -297
-299 -298
297 298 299
-300 17
-300 -159
-17 159 300
-301 -17
-301 29
17 -29 301
-302 -300
-302 -301
300 301 302
-303 17
-303 -168
-17 168 303
-304 -17
-304 30
17 -30 304
-305 -303
-305 -304
303 304 305
-306 17
-306 -177
-17 177 306
-307 -17
-307 31
17 -31 307
-308 -306
-308 -307
306 307 308
-309 17
-309 -186
-17 186 309
-310 -17
-310 32
17 -32 310
-311 -309
-311 -310
309 310 311
-312 17
-312 -195
-17 195 312
-313 -17
-313 33
17 -33 313
-314 -312
-314 -313
312 313 314
-315 17
-315 -204
-17 204 315
-316 -17
-316 34
17 -34 316
-317 -315
-317 -316
315 316 317
-318 17
-318 -213
-17 213 318
-319 -17
-319 35
17 -35 319
-320 -318
-320 -319
318 319 320
-321 17
-321 -222
-17 222 321
-322 -17
-322 36
17 -36 322
-323 -321
-323 -322
321 322 323
-324 17
-324 -231
-17 231 324
-325 -17
-325 37
17 -37 325
-326 -324
-326 -325
324 325 326
-327 17
-327 -240
-17 240 327
-328 -17
-328 38
17 -38 328
-329 -327
-329 -328
327 328 329
-330 17
-330 -249
-17 249 330
-331 -17
-331 39
17 -39 331
-332 -330
-332 -331
330 331 332
-333 17
-333 -258
-17 258 333
-334 -17
-334 40
17 -40 334
-335 -333
-335 -334
333 334 335
-336 17
-336 -267
-17 267 336
-337 1
-337 62
-1 -62 337
-338 -62
-338 63
62 -63 338
-339 -337
-339 -338
337 338 339
-340 2
-340 62
-2 -62 340
-341 -62
-341 -272
62 272 341
-342 -340
-342 -341
340 341 342
-343 3
-343 62
-3 -62 343
-344 -62
-344 -275
62 275 344
-345 -343
-345 -344
343 344 345
-346 4
-346 62
-4 -62 346
-347 -62
-347 -278
62 278 347
-348 -346
-348 -347
346 347 348
-349 5
-349 62
-5 -62 349
-350 -62
-350 -281
62 281 350
-351 -349
-351 -350
349 350 351
-352 6
-352 62
-6 -62 352
-353 -62
-353 -284
62 284 353
-354 -352
-354 -353
352 353 354
-355 7
-355 62
-7 -62 355
-356 -62
-356 -287
62 287 356
-357 -355
-357 -356
355 356 357
-358 8
-358 62
-8 -62 358
-359 -62
-359 -290
62 290 359
-360 -358
-360 -359
358 359 360
-361 9
-361 62
-9 -62 361
-362 -62
-362 -293
62 293 362
-363 -361
-363 -362
361 362 363
-364 10
-364 62
-10 -62 364
-365 -62
-365 -296
62 296 365
-366 -364
-366 -365
364 365 366
-367 11
-367 62
-11 -62 367
-368 -62
-368 -299
62 299 368
-369 -367
-369 -368
367 368 369
-370 12
-370 62
-12 -62 370
-371 -62
-371 -302
62 302 371
-372 -370
-372 -371
370 371 372
-373 13
-373 62
-13 -62 373
-374 -62
-374 -305
62 305 374
-375 -373
-375 -374
373 374 375
-376 14
-376 62
-14 -62 376
-377 -62
-377 -308
62 308 377
-378 -376
-378 -377
376 377 378
-379 15
-379 62
-15 -62 379
-380 -62
-380 -311
62 311 380
-381 -379
-381 -380
379 380 381
-382 16
-382 62
-16 -62 382
-383 -62
-383 -314
62 314 383
-384 -382
-384 -383
382 383 384
-385 -62
-385 -317
62 317 385
-386 -62
-386 -320
62 320 386
-387 -62
-387 -323
62 323 387
-388 -62
-388 -326
62 326 388
-389 -62
-389 -329
62 329 389
-390 -62
-390 -332
62 332 390
-391 -62
-391 -335
62 335 391
-392 -62
-392 336
62 -336 392
-393 -40
-393 269
40 -269 393
-394 17
-394 -393
-17 393 394
394
